GLPSOL: GLPK LP/MIP Solver, v4.65
Parameter(s) specified in the command line:
 --model solver_drone.mod --data solver_drone_data_10.dat --output solver_drone_solution_10_5.log
 --log solver_drone_cmd_output_10_5.log --tmlim 30
Reading model section from solver_drone.mod...
41 lines were read
Reading data section from solver_drone_data_10.dat...
37 lines were read
Generating f...
Generating package_deliverd_once...
Generating package_well_delivered...
Generating time_spent_flying...
Generating autonomy_not_exceeded...
Generating check_time_max...
Model has been successfully generated
GLPK Integer Optimizer, v4.65
866 rows, 831 columns, 2566 non-zeros
831 integer variables, 825 of which are binary
Preprocessing...
40 rows, 831 columns, 1740 non-zeros
831 integer variables, 825 of which are binary
Scaling...
 A: min|aij| =  1.000e+00  max|aij| =  3.088e+03  ratio =  3.088e+03
GM: min|aij| =  5.550e-01  max|aij| =  1.802e+00  ratio =  3.246e+00
EQ: min|aij| =  3.081e-01  max|aij| =  1.000e+00  ratio =  3.246e+00
2N: min|aij| =  2.500e-01  max|aij| =  1.031e+00  ratio =  4.125e+00
Constructing initial basis...
Size of triangular part is 40
Solving LP relaxation...
GLPK Simplex Optimizer, v4.65
40 rows, 831 columns, 1740 non-zeros
      0: obj =   0.000000000e+00 inf =   7.048e+02 (1)
     41: obj =   4.510400000e+03 inf =   0.000e+00 (0)
*    54: obj =   4.510400000e+03 inf =   0.000e+00 (0)
OPTIMAL LP SOLUTION FOUND
Integer optimization begins...
Long-step dual simplex will be used
+    54: mip =     not found yet >=              -inf        (1; 0)
+   399: >>>>>   5.984000000e+03 >=   4.511000000e+03  24.6% (27; 0)
+   566: >>>>>   5.832000000e+03 >=   4.511000000e+03  22.7% (39; 3)
+   730: >>>>>   4.896000000e+03 >=   4.511000000e+03   7.9% (55; 10)
+  1048: >>>>>   4.784000000e+03 >=   4.511000000e+03   5.7% (55; 42)
+  1090: >>>>>   4.656000000e+03 >=   4.511000000e+03   3.1% (51; 55)
+ 22695: >>>>>   4.584000000e+03 >=   4.511000000e+03   1.6% (1033; 638)
+129490: mip =   4.584000000e+03 >=   4.511000000e+03   1.6% (4017; 4751)
+221252: mip =   4.584000000e+03 >=   4.511000000e+03   1.6% (6182; 8586)
+300724: mip =   4.584000000e+03 >=   4.511000000e+03   1.6% (8109; 11909)
+371187: mip =   4.584000000e+03 >=   4.511000000e+03   1.6% (9747; 14879)
+439728: mip =   4.584000000e+03 >=   4.511000000e+03   1.6% (11239; 17739)
+494454: mip =   4.584000000e+03 >=   4.511000000e+03   1.6% (12754; 19739)
TIME LIMIT EXCEEDED; SEARCH TERMINATED
Time used:   30.0 secs
Memory used: 96.0 Mb (100708568 bytes)
The package 1 is delivered by the drone 1 to the house 1
The package 2 is delivered by the drone 3 to the house 1
The package 3 is delivered by the drone 2 to the house 1
The package 4 is delivered by the drone 1 to the house 2
The package 5 is delivered by the drone 4 to the house 2
The package 6 is delivered by the drone 2 to the house 2
The package 7 is delivered by the drone 3 to the house 3
The package 8 is delivered by the drone 1 to the house 4
The package 9 is delivered by the drone 4 to the house 6
The package 10 is delivered by the drone 3 to the house 7
The package 11 is delivered by the drone 1 to the house 8
The package 12 is delivered by the drone 4 to the house 8
The package 13 is delivered by the drone 2 to the house 9
The package 14 is delivered by the drone 5 to the house 10
The package 15 is delivered by the drone 5 to the house 10
Model has been successfully processed
Writing MIP solution to 'solver_drone_solution_10_5.log'...
